15
Properties=species:S:1:pos:R:3 Coordinates=T from=T ORCA-job=T trial_004_002_005=T pbc="F F F"
C        0.71635639      -0.28951024      -2.17242058
O        1.48538473      -0.17892888      -1.30523870
O       -0.03687030      -0.38796326      -3.04302745
C        1.80675294      -0.24057290       1.39847851
O        0.64879961      -0.19744870       1.50417591
O        2.95942668      -0.26295883       1.31765529
C       -1.16179335       1.70567891       0.51663267
O       -1.37455178       2.17771640       1.54954089
O       -0.94748661       1.24592482      -0.53050691
C       -1.52268576      -1.42000459       0.29309106
O       -0.85853593      -1.92840435      -0.51278477
O       -2.20029323      -0.91867529       1.08695879
C        1.65358040      -2.97049260      -0.69411356
O        1.54168897      -3.10386192      -1.83978245
O        1.76868543      -2.84574416       0.45375741
21
Properties=species:S:1:pos:R:3 Coordinates=T from=T ORCA-job=T trial_004_002_007=T pbc="F F F"
C       -2.50260966       0.13248482      -1.31694627
O       -2.10418423      -0.64513942      -2.08455874
O       -2.90924084       0.90430640      -0.55815646
C       -0.11019220      -1.57313751       0.63839465
O       -0.50325907      -0.48070621       0.66180743
O        0.27262837      -2.66598087       0.60600639
C        0.83279519       1.37586495      -0.98224109
O        1.80429202       1.10351831      -0.40198747
O       -0.12500224       1.64343554      -1.57181304
C        1.30150805       0.86309807       2.28760525
O        0.76756137       1.89140976       2.22863702
O        1.83089926      -0.16630418       2.36098632
C        2.74125341       3.41307464       0.89474722
O        3.46995571       2.82729367       1.58131599
O        2.01811120       4.01068890       0.21309244
C       -2.34676512      -3.33686304      -0.75768216
O       -2.03805026      -4.09358881      -1.57620403
O       -2.65198226      -2.56556163       0.05757246
C        1.41219700      -2.14108538      -2.29849181
O        0.77701937      -1.26059154      -1.87983591
O        2.04202662      -3.01291938      -2.72043313
30
Properties=species:S:1:pos:R:3 Coordinates=T from=T ORCA-job=T trial_004_002_010=T pbc="F F F"
C       -2.60695515      -2.32633837      -1.43556200
O       -1.50193469      -2.69576391      -1.40072811
O       -3.70765093      -1.98036105      -1.46151615
C       -1.08502110      -2.73479227       1.36483954
O       -1.91026128      -1.91547732       1.35977496
O       -0.27819727      -3.56421442       1.37253545
C       -1.23463162       0.56660540       0.17964623
O       -0.84444438       0.90785668       1.21729986
O       -1.63507663       0.22521654      -0.85300298
C        0.42440323      -0.14700282       3.44913762
O        0.36153264       0.90760860       3.92331987
O        0.49587276      -1.21058950       2.98844203
C        1.58610405       2.10862181       1.54856097
O        2.10680114       1.06736686       1.54208657
O        1.08727161       3.15179146       1.54479856
C        1.99198458       0.88907150      -1.34951019
O        2.90506245       0.19920908      -1.51115168
O        1.09000377       1.60254914      -1.17180464
C        1.74955202      -1.68641293       0.47925693
O        2.69078987      -2.18821375       0.91685861
O        0.80269968      -1.16498040       0.04006173
C       -0.63239708      -0.73236776      -3.28187046
O       -1.72660064      -0.80078689      -3.65348872
O        0.46989061      -0.66569384      -2.92165519
C       -0.35752427       3.91842565      -0.80567057
O        0.53475367       4.59591575      -1.09813833
O       -1.26130297       3.24557505      -0.52423136
C        0.87141057      -3.51274491      -2.54919768
O        0.28556487      -3.53784656      -3.55017893
O        1.46509001      -3.50133881      -1.55373275
21
Properties=species:S:1:pos:R:3 Coordinates=T from=T ORCA-job=T trial_004_003_007=T pbc="F F F"
C       -3.40018937      -1.02239768      -1.42528478
O       -2.38867111      -1.58396787      -1.30217509
O       -4.40928683      -0.47356200      -1.55556646
C       -1.15237957      -2.65557932       0.91750227
O       -1.50061487      -1.70789525       1.49388355
O       -0.81792449      -3.61081246       0.35689473
C       -0.86731079       0.66153935      -0.21300434
O        0.16164595       0.15333358      -0.02910240
O       -1.88949296       1.16910943      -0.40118508
C        1.32883146      -0.75176519       2.18006653
O        1.22243838       0.27042046       2.71638368
O        1.44187728      -1.78284078       1.65851570
C        1.85841150       2.23406292       0.63119297
O        2.80646542       1.57220082       0.51791063
O        0.91204905       2.89425293       0.73746110
C        2.28427437       0.45400308      -2.06768564
O        3.02507802      -0.42707565      -1.93391329
O        1.55205152       1.34440538      -2.21243302
C        1.52381611      -2.78066713      -1.14151487
O        2.34195634      -3.45076601      -0.67424568
O        0.69806849      -2.11973891      -1.63061699




39
Properties=species:S:1:pos:R:3 trial=T orientation=T 005_000_002:=T 0.0=T pbc="F F F"
C       -3.06572000      -1.68486000      -1.69030000
O       -2.67263000      -2.44375000      -0.90391000
O       -3.47268000      -0.93895000      -2.47750000
C       -1.72089000      -2.23024000       1.68629000
O       -1.78578000      -1.07378000       1.59023000
O       -1.65553000      -3.37939000       1.79995000
C       -0.24560000       0.20541000      -0.32565000
O        0.70530000       0.30801000       0.33910000
O       -1.18592000       0.10758000      -0.98757000
C        1.61412000      -0.91908000       2.63653000
O        2.31722000      -0.00974000       2.77814000
O        0.91541000      -1.83728000       2.50749000
C        2.15153000       2.37116000       1.32588000
O        3.07938000       1.99509000       0.74610000
O        1.22335000       2.77037000       1.90092000
C        3.23349000      -0.79417000      -0.51879000
O        2.96535000      -1.59740000       0.27795000
O        3.52054000      -0.00459000      -1.31415000
C        0.82630000      -3.35306000       0.18136000
O        1.42799000      -4.22829000       0.63144000
O        0.20798000      -2.48457000      -0.29046000
C        0.60295000      -1.87183000      -2.92019000
O       -0.52421000      -1.79627000      -3.17496000
O        1.73398000      -1.96765000      -2.67158000
C       -0.67896000       3.72237000      -0.13909000
O       -1.22462000       4.54419000       0.46090000
O       -0.11180000       2.90948000      -0.75018000
C       -1.01257000       1.31642000       2.53847000
O       -0.47513000       0.82512000       3.43762000
O       -1.55879000       1.80202000       1.63475000
C       -3.49639000       1.43097000      -0.34044000
O       -3.08491000       2.40963000      -0.80744000
O       -3.92125000       0.45904000       0.12836000
C        1.79455000       1.81135000      -2.42553000
O        2.49313000       2.71702000      -2.26098000
O        1.08082000       0.90983000      -2.60268000
C        0.21917000      -4.40026000       3.62131000
O        0.91657000      -5.30717000       4.14546000
O       -0.47823000      -3.49335000       3.09717000
12
Properties=species:S:1:pos:R:3 Coordinates=T from=T ORCA-job=T trial_005_000_004=T pbc="F F F"
C       -1.75637876      -0.01416360      -1.09850622
O       -0.80480373      -0.67949665      -1.17626652
O       -2.70846620       0.63734432      -1.02449771
C        0.22980711      -0.78389749       1.65312276
O       -0.40555359       0.18492515       1.56266738
O        0.85229253      -1.75396294       1.75322636
C        1.16488633       1.27104007      -0.65352678
O        1.93190478       0.51175124      -0.22822907
O        0.40064421       2.03173606      -1.07998024
C        2.81644418      -3.57793693       2.48985791
O        2.14362990      -4.46097313       2.15583119
O        3.49655744      -2.70405169       2.83471184
15
Properties=species:S:1:pos:R:3 Coordinates=T from=T ORCA-job=T trial_005_000_005=T pbc="F F F"
C       -2.34628538      -0.16557917      -1.74065110
O       -1.40797972      -0.80950644      -1.98500010
O       -3.28555895       0.46434234      -1.50228668
C       -0.17963345      -1.61788184       0.47061373
O       -0.64962760      -0.60404073       0.80253581
O        0.27484978      -2.62840355       0.14631007
C        0.60497759       1.08414025      -1.20713018
O        1.44984685       0.30948169      -1.01745816
O       -0.23848172       1.85367983      -1.40182069
C        1.71292249       0.61958693       1.79445879
O        1.38253402       1.71155046       1.59699655
O        2.04304929      -0.47817174       1.98672019
C        2.37171310      -0.29668217       4.87919448
O        2.58193884      -1.39616803       5.17326312
O        2.15921938       0.80890827       4.59166187
18
Properties=species:S:1:pos:R:3 Coordinates=T from=T ORCA-job=T trial_005_000_006=T pbc="F F F"
C        0.45338802       0.48537158      -2.01975779
O        1.21939621       0.50413986      -1.14342577
O       -0.29802299       0.46760269      -2.89732154
C        1.39785011       0.32806138       1.58941882
O        0.23482260       0.37486667       1.62070646
O        2.55259260       0.30728306       1.56971920
C       -1.47492793       2.36108719       0.63569688
O       -1.69513348       2.80901790       1.67798052
O       -1.25697695       1.92890178      -0.42256297
C       -1.89303660      -0.75111683       0.25985625
O       -1.19118512      -1.22059973      -0.53759354
O       -2.60879372      -0.29443236       1.04693163
C        1.32473773      -2.29023565      -0.70611559
O        1.24013654      -2.38418648      -1.85663468
O        1.41261175      -2.20272796       0.44847249
C        0.99275281      -2.81919198       3.10016981
O        0.59669216      -3.86973575       2.81585881
O        1.38617806      -1.76901098       3.40017590
21
Properties=species:S:1:pos:R:3 Coordinates=T from=T ORCA-job=T trial_005_000_007=T pbc="F F F"
C        1.40985347       0.85025715      -1.71028947
O        1.72921750       0.62008181      -0.61500239
O        1.10983812       1.08546237      -2.80071490
C        0.88471536       0.33275707       1.91753949
O       -0.21961663       0.43156974       1.56264615
O        1.97634332       0.25191163       2.29088601
C       -1.20741933       2.74656729       0.27273731
O       -1.72864545       3.16833560       1.21396650
O       -0.67623747       2.33692303      -0.67812295
C       -1.77214812      -0.23894695      -0.63435926
O       -0.86296381      -0.72688374      -1.16877172
O       -2.68410755       0.25657424      -0.12040480
C        1.35781183      -2.12744130      -0.49688588
O        1.64022945      -2.16422214      -1.61720067
O        1.08124559      -2.11626727       0.63439780
C       -1.17376586      -2.16793955       2.17418103
O       -0.51156864      -2.06051386       3.11765374
O       -1.84172330      -2.28148934       1.23228624
C        4.08289886      -1.45336086       1.50686342
O        4.32697477      -1.63493594       2.62429095
O        3.85627050      -1.28541226       0.37961321
24
Properties=species:S:1:pos:R:3 Coordinates=T from=T ORCA-job=T trial_005_000_008=T pbc="F F F"
C        1.81527951       1.43401910      -2.12718221
O        2.17950320       1.16511522      -1.05493817
O        1.47011809       1.70625698      -3.19554009
C        1.25642283       0.39012929       1.41681778
O        0.22815296       0.35629134       0.87371609
O        2.27234976       0.43396716       1.96512652
C       -1.29945144       2.37306880      -0.13823431
O       -1.96274008       2.39472639       0.80984526
O       -0.63327630       2.36563188      -1.09069210
C       -1.03063193      -0.49547457      -1.41182652
O       -0.02519260      -0.71900874      -1.94492687
O       -2.04158489      -0.25623044      -0.89688816
C        2.45101143      -1.64118781      -1.14611554
O        2.91639398      -1.48764709      -2.19444153
O        1.98892665      -1.80185211      -0.09291538
C       -0.21223245      -2.39434935       1.38149468
O        0.39298073      -2.20656168       2.35306467
O       -0.81258598      -2.59454185       0.40954680
C       -3.14972633      -0.16353311       1.64803702
O       -4.11916443       0.25911268       1.17796489
O       -2.18761645      -0.59353541       2.13744755
C        3.11324945      -1.89438117       3.26990680
O        3.59375315      -2.29065632       2.29093327
O        2.64545684      -1.50818970       4.25751987
27
Properties=species:S:1:pos:R:3 Coordinates=T from=T ORCA-job=T trial_005_000_009=T pbc="F F F"
C        1.96504514       1.67765377      -1.91088777
O        2.34063581       1.46080451      -0.83089338
O        1.60622307       1.89940784      -2.98659202
C        1.40319717       0.98810405       1.69774504
O        0.35064322       0.97504156       1.19680779
O        2.43772760       1.01958823       2.20699056
C       -0.95352150       3.09455596       0.09679384
O       -1.57917061       3.25596719       1.05673168
O       -0.32533482       2.94139748      -0.86916882
C       -1.05977751       0.15518096      -0.98189781
O       -0.07867030      -0.22044018      -1.47762347
O       -2.04136640       0.54281244      -0.50561165
C        2.32613360      -1.35918288      -0.72364661
O        2.69786906      -1.32370289      -1.81915115
O        1.96748771      -1.39046898       0.38100459
C       -0.32110563      -1.67276580       1.84446193
O        0.26266802      -1.45409961       2.81691822
O       -0.91561159      -1.90914285       0.87078089
C       -3.06487157       0.87487390       2.04316743
O       -3.96999314       1.45818134       1.61946841
O       -2.16754534       0.28361278       2.48480264
C       -0.66245451      -2.92601197      -1.72625173
O        0.42678503      -3.24317728      -1.47512189
O       -1.74598541      -2.60779623      -1.98069190
C       -0.04601663      -4.71748335       0.85934337
O       -0.92352014      -5.17880252       0.25763515
O        0.82451464      -4.25476527       1.47073855





30
Properties=species:S:1:pos:R:3 Coordinates=T from=T ORCA-job=T trial_005_000_010=T pbc="F F F"
C        1.65309526       0.77945219      -2.00924409
O        2.00200672       0.72130777      -0.89865430
O        1.31342240       0.84939750      -3.10975638
C        1.03967875       0.53162096       1.67515730
O       -0.03863584       0.50124639       1.23539046
O        2.09695373       0.56728979       2.13806986
C       -0.94524960       2.70206694      -0.10198871
O       -1.43727179       3.08505846       0.86988147
O       -0.45388701       2.31865785      -1.08361700
C       -1.51186854      -0.28795182      -0.94846522
O       -0.57534549      -0.79163119      -1.41694891
O       -2.43864412       0.23262348      -0.48906036
C        1.74060124      -2.10264240      -0.52467751
O        2.07224767      -2.17012879      -1.63124666
O        1.43113775      -2.01195978       0.59332328
C       -0.95885562      -1.96296836       2.01827023
O       -0.37529771      -1.78524134       3.00804159
O       -1.54545616      -2.13301469       1.02969552
C       -3.33310245       0.87235528       2.12856137
O       -4.02464592       1.66022096       1.63955132
O       -2.63306023       0.09180490       2.62740540
C       -1.33670620      -3.55035421      -1.29239852
O       -0.27748319      -3.93498428      -1.01908544
O       -2.39246535      -3.15683956      -1.56568793
C        2.67270608       3.09707803       0.49301243
O        3.76739393       3.05724220       0.12421530
O        1.56966002       3.14285921       0.85932806
C        1.18290044      -4.48469748       2.64711769
O        0.27804805      -4.46284991       1.91922901
O        2.08023699      -4.52200858       3.37978783
33
Properties=species:S:1:pos:R:3 Coordinates=T from=T ORCA-job=T trial_005_000_011=T pbc="F F F"
C       -2.38252694      -2.50046893      -1.68672344
O       -1.90622119      -2.87547120      -0.69278809
O       -2.87936322      -2.14789903      -2.66723720
C       -1.17563174      -2.09344757       1.82634345
O       -1.67453838      -1.06091460       1.64770831
O       -0.68185700      -3.12466364       2.01629538
C       -0.55950146       0.37967091      -0.48088967
O        0.16954849       0.80384417       0.32227961
O       -1.28063468      -0.04757122      -1.27375823
C        1.64722032       0.27387857       2.59179273
O        2.04774759       1.35941240       2.57455815
O        1.25687087      -0.82008021       2.61704399
C        1.29330737       3.18997989       0.65258555
O        2.17224216       2.85196768      -0.02141002
O        0.41341095       3.54565417       1.32242845
C        2.62107922       0.13149591      -0.86552988
O        3.17536953      -0.04437104       0.13832448
O        2.07246430       0.28273380      -1.87637095
C        1.64174337      -2.60140954       0.55035682
O        2.35655576      -3.29012729       1.13597795
O        0.92052174      -1.89952781      -0.04177793
C        1.19848080      -2.54338775      -2.63481875
O        0.08731337      -2.33865198      -2.89376373
O        2.31183146      -2.75461229      -2.38521285
C       -1.76443671       3.77442251      -0.60692463
O       -2.43751805       4.55772360      -0.08790112
O       -1.08326102       3.00101317      -1.14648764
C       -1.53834212       1.67953826       2.31235030
O       -0.84642663       1.37480168       3.19001674
O       -2.24687341       1.97703361       1.44259322
C       -0.43592750      -5.14612733      -0.21785639
O        0.44479704      -4.65877359      -0.80113433
O       -1.30542667      -5.65373449       0.35034171
36
Properties=species:S:1:pos:R:3 Coordinates=T from=T ORCA-job=T trial_005_000_012=T pbc="F F F"
C       -2.60773459      -1.73627059      -1.82651263
O       -2.23211524      -2.32802700      -0.89979583
O       -2.99467912      -1.16267848      -2.75440514
C       -1.60200147      -1.77240061       1.73112141
O       -1.76823262      -0.64669311       1.49424358
O       -1.44100230      -2.89098407       1.97875877
C       -0.14083593       0.48662728      -0.40233052
O        0.59741237       0.66826207       0.47857889
O       -0.86987278       0.29503085      -1.27736733
C        1.63545840      -0.25626730       2.80742349
O        2.32338709       0.67088898       2.88572574
O        0.93897811      -1.18339476       2.72931619
C        2.16682137       2.74038650       1.01968492
O        3.01373245       2.23658762       0.40982902
O        1.32475968       3.26295719       1.62446037
C        2.85773592      -0.43920874      -0.63626810
O        3.24152720      -0.87889765       0.36801656
O        2.45738335      -0.01879205      -1.63898726
C        1.20816080      -2.88582261       0.61763516
O        1.83944035      -3.62770932       1.23647307
O        0.57739970      -2.14359988      -0.02295723
C        0.99944619      -2.43138415      -2.71822406
O       -0.02843661      -1.99978845      -3.03250708
O        2.02726057      -2.87151406      -2.40413864
C       -0.66887245       3.97858793      -0.65716388
O       -1.33605703       4.85856227      -0.31744217
O        0.02505689       3.11162213      -1.00583087
C       -1.09985694       1.88110418       2.29095937
O       -0.55747226       1.46246897       3.22315166
O       -1.65310220       2.30352351       1.35982925
C       -3.32551353       1.50064194      -0.85384608
O       -2.93494828       2.48925234      -1.31702192
O       -3.72679602       0.51641203      -0.38967516
C        4.31379339      -2.63325827       2.25048464
O        4.87525381      -3.26018808       1.45550688
O        3.76136906      -2.00039653       3.05211404
39
Properties=species:S:1:pos:R:3 trial=T orientation=T 005_000_013:=T 0.0=T pbc="F F F"
C       -3.06624000      -1.68144000      -1.69606000
O       -2.68030000      -2.44350000      -0.90915000
O       -3.46838000      -0.93682000      -2.48697000
C       -1.72433000      -2.22926000       1.69158000
O       -1.78936000      -1.07302000       1.59272000
O       -1.66101000      -3.37818000       1.80805000
C       -0.24775000       0.20660000      -0.32522000
O        0.70265000       0.30381000       0.34082000
O       -1.18659000       0.10834000      -0.98941000
C        1.61943000      -0.91806000       2.63185000
O        2.32223000      -0.00820000       2.77111000
O        0.91953000      -1.83581000       2.50566000
C        2.15555000       2.38155000       1.32440000
O        3.08150000       2.00149000       0.74410000
O        1.22848000       2.77867000       1.90266000
C        3.23551000      -0.79308000      -0.52218000
O        2.96183000      -1.59126000       0.27755000
O        3.52374000      -0.00378000      -1.31735000
C        0.82313000      -3.35336000       0.18611000
O        1.42811000      -4.22471000       0.63940000
O        0.20359000      -2.48571000      -0.28554000
C        0.60185000      -1.86935000      -2.92262000
O       -0.52452000      -1.78464000      -3.17748000
O        1.73179000      -1.96566000      -2.66996000
C       -0.67822000       3.71018000      -0.14265000
O       -1.22157000       4.53695000       0.45240000
O       -0.10731000       2.89605000      -0.74884000
C       -1.01626000       1.30557000       2.54091000
O       -0.47361000       0.81774000       3.43883000
O       -1.56416000       1.79932000       1.64256000
C       -3.49243000       1.42830000      -0.34252000
O       -3.07953000       2.41077000      -0.80028000
O       -3.91816000       0.45453000       0.12156000
C        1.79023000       1.81193000      -2.42101000
O        2.49221000       2.71534000      -2.25812000
O        1.07839000       0.90870000      -2.59691000
C        2.57312000      -2.46191000       4.12719000
O        1.31919000      -2.52958000       4.04566000
O        3.82705000      -2.39423000       4.20873000
12
Properties=species:S:1:pos:R:3 Coordinates=T from=T ORCA-job=T trial_005_001_004=T pbc="F F F"
C       -0.15660950      -0.83549966      -2.21932135
O        0.60320646      -1.01245938      -1.35863779
O       -0.90248561      -0.68126458      -3.09060044
C        1.17928657      -0.66217558       1.32199352
O        0.35849556       0.15505642       1.37471973
O        2.00595599      -1.47405649       1.28347252
C       -1.61792608       1.66928248       0.22616314
O       -1.82158558       2.24467215       1.20945076
O       -1.42799732       1.10141558      -0.76857181
C        3.48136531      -0.60122521       3.71353189
O        2.45300348      -0.06948928       3.81316627
O        4.50901952      -1.12593238       3.62101546
15
Properties=species:S:1:pos:R:3 Coordinates=T from=T ORCA-job=T trial_005_001_005=T pbc="F F F"
C       -0.72014645      -0.79903728      -2.40187078
O        0.27824510      -1.29428518      -2.06629728
O       -1.71639060      -0.32531877      -2.75228276
C        0.56128354      -1.51817544       0.97624593
O       -0.23308745      -0.71729796       0.69097321
O        1.35006722      -2.32200743       1.24623664
C        1.46645739       1.23851453      -0.43731451
O        2.21388580       0.98031067       0.41079147
O        0.73348757       1.51145818      -1.28945827
C       -2.18180206       1.13468687       1.10297645
O       -2.26453152       1.25984128      -0.04687301
O       -2.09657301       1.02168912       2.25480064
C        2.50971950      -0.28382612       3.24299586
O        1.38144138      -0.04090266       3.10804146
O        3.63255597      -0.53854343       3.37314545
18
Properties=species:S:1:pos:R:3 Coordinates=T from=T ORCA-job=T trial_005_001_006=T pbc="F F F"
C       -2.93096620      -0.84908352      -1.70550212
O       -1.92385444      -1.43201238      -1.72394894
O       -3.93698071      -0.28083559      -1.69393774
C       -0.72352155      -2.03868088       0.72499745
O       -1.15002255      -1.00680096       1.05145465
O       -0.30340199      -3.06509805       0.39744683
C       -0.16638395       0.70453368      -0.97853114
O        0.79278430       0.06176840      -0.83320864
O       -1.12271120       1.33643893      -1.13227353
C        1.42540077       0.00281061       1.89618312
O        1.06502613       1.10499044       1.89826146
O        1.78252930      -1.10115987       1.89536146
C        2.56094254       2.23367728      -0.22721455
O        3.43729198       1.60695664       0.19997669
O        1.68777309       2.86157818      -0.66360006
C        0.80307832      -3.47472615       3.20974944
O        1.71488757      -4.17512944       3.07868325
O       -0.11301903      -2.77295591       3.35365256
21
Properties=species:S:1:pos:R:3 Coordinates=T from=T ORCA-job=T trial_005_001_007=T pbc="F F F"
C        0.23695396       0.41294748      -1.31615464
O        0.95801561       0.52173655      -0.40978922
O       -0.47283450       0.29909175      -2.22230884
C        1.15327855       0.60693355       2.29124178
O       -0.00954282       0.54549911       2.34716050
O        2.30389737       0.68686868       2.25288038
C       -1.74003938       2.39256958       1.14575332
O       -1.84460594       3.00364470       2.12131160
O       -1.63741933       1.79595842       0.15224395
C       -2.07424083      -0.80483249       1.07275253
O       -1.36569018      -1.27811205       0.28227073
O       -2.79334692      -0.32225423       1.84049490
C        1.20986701      -2.24286546       0.25565289
O        1.25483099      -2.39845562      -0.89124214
O        1.16025626      -2.10260812       1.40605860
C        1.59516267      -1.48197849      -3.53114124
O        0.99266152      -2.33070127      -4.03738084
O        2.20541600      -0.62877945      -3.03087741
C       -0.07002717      -1.85001088       3.82371447
O        0.91327509      -1.45887456       4.29851922
O       -1.05586745      -2.23950430       3.35319047
24
Properties=species:S:1:pos:R:3 Coordinates=T from=T ORCA-job=T trial_005_001_008=T pbc="F F F"
C       -2.28905287      -1.61373325      -1.68699449
O       -2.62485887      -1.61518524      -0.57424264
O       -1.97898001      -1.61318937      -2.80230372
C       -1.50976363      -1.80912037       1.85249680
O       -2.10179356      -0.87320628       2.19165744
O       -0.90764528      -2.74990927       1.52686257
C       -1.29162083       1.35508386      -0.24846150
O       -0.71588141       1.60014827       0.73025575
O       -1.88344596       1.12636999      -1.21877379
C        0.88673319       0.55525850       2.77516409
O        0.94475365       1.64618256       3.15769179
O        0.84052698      -0.55016125       2.41932575
C        1.92313033       2.42350234       0.51751360
O        2.25300382       1.30531066       0.49449545
O        1.61546025       3.53640048       0.53139111
C        1.59452396       0.83123579      -2.26222455
O        2.28836602      -0.07032240      -2.47651804
O        0.91053458       1.74765665      -2.05383592
C        1.04269391      -1.60383881      -0.16872207
O        1.82067995      -2.39576048       0.14535532
O        0.25515968      -0.80879188      -0.49350206
C       -0.33308566      -4.55660290      -0.45328369
O       -0.17599538      -5.43005682       0.28664648
O       -0.49085046      -3.68509527      -1.20901638
27
Properties=species:S:1:pos:R:3 Coordinates=T from=T ORCA-job=T trial_005_001_009=T pbc="F F F"
C       -3.13037349      -1.48547614      -1.57299453
O       -2.32321888      -2.14377617      -1.05519942
O       -3.95184822      -0.85425271      -2.08621887
C       -1.37213197      -1.97515822       1.50185525
O       -1.93970313      -0.96984296       1.63156175
O       -0.79739407      -2.97428185       1.38938952
C       -1.09736331       1.14091758       0.02515408
O       -0.35736978       1.46195545       0.86210617
O       -1.83712176       0.84008927      -0.81122171
C        1.17318878       0.27594633       2.76577707
O        1.35239668       1.30314659       3.26422236
O        0.99371227      -0.76775958       2.28428611
C        1.68664215       3.30114842       1.22917540
O        2.41082905       2.50708315       0.78491861
O        0.97750884       4.10305000       1.66646236
C        1.98746538       0.99117588      -1.44775146
O        2.90018192       0.34168182      -1.15564627
O        1.06399862       1.63081989      -1.74678261
C        1.23336112      -1.84498689      -0.24894169
O        2.06925073      -2.58660858       0.03863882
O        0.39216082      -1.09366249      -0.54500151
C       -0.05349132      -0.78084212      -3.34656567
O       -1.20444641      -0.65659429      -3.36903970
O        1.10071145      -0.91152886      -3.34036347
C        2.71331132      -2.93570539       2.78987496
O        3.54569655      -2.12656754       2.78293541
O        1.88316793      -3.74339117       2.81449023
30
Properties=species:S:1:pos:R:3 Coordinates=T from=T ORCA-job=T trial_005_001_010=T pbc="F F F"
C       -3.29952052      -1.48823088      -1.62208314
O       -2.36722135      -2.03987939      -1.19784352
O       -4.23751597      -0.95926039      -2.04246441
C       -1.27797850      -1.90770514       1.31065486
O       -1.94071365      -0.98880939       1.55959256
O       -0.61371756      -2.82676334       1.06773712
C       -1.49215294       1.29562750      -0.01310821
O       -0.74780309       1.68399890       0.79056646
O       -2.24178160       0.92883074      -0.81391758
C        0.97206309       0.64159669       2.61189509
O        1.03034621       1.67326485       3.12943389
O        0.93145562      -0.40357141       2.10326740
C        1.15969923       3.67799592       1.05306990
O        1.91162099       2.91198880       0.60471502
O        0.41836717       4.44713819       1.49499794
C        1.50101983       1.56387988      -1.73998877
O        2.51846840       1.03273638      -1.59177805
O        0.47438889       2.08529419      -1.90279560
C        1.21796166      -1.34521625      -0.47001716
O        2.14554102      -1.98050098      -0.21000702
O        0.28149519      -0.70248068      -0.73107561
C       -0.48787594      -0.33330010      -3.52647547
O       -1.64362647      -0.27606208      -3.48442276
O        0.67071064      -0.38945142      -3.58248181
C        2.82421805      -2.43171149       2.50937174
O        3.63121599      -1.60050861       2.46230093
O        2.02687111      -3.27082754       2.58372692
C       -0.23679071      -4.78067769       2.98805250
O       -0.68840925      -4.00675578       3.72639194
O        0.20115377      -5.56301060       2.25463343
33
Properties=species:S:1:pos:R:3 Coordinates=T from=T ORCA-job=T trial_005_001_011=T pbc="F F F"
C       -2.07769271      -2.41264558      -0.98463449
O       -0.91863692      -2.48378336      -0.88768280
O       -3.22728404      -2.35546617      -1.07046431
C       -0.49284538      -2.35006574       1.82787433
O       -1.44840623      -1.69051852       1.82852262
O        0.45033019      -3.02325786       1.83750886
C       -1.24396458       0.79149777       0.47515407
O       -0.90013369       1.24605923       1.48559500
O       -1.59941641       0.33426022      -0.52876161
C        0.55997232       0.56218748       3.73870617
O        0.30292738       1.61208520       4.15350188
O        0.82844549      -0.49478436       3.33922797
C        1.26531069       2.90436278       1.70853015
O        1.97035500       1.97904301       1.74941316
O        0.58317086       3.83629208       1.65686583
C        1.84719796       1.61811956      -1.13131755
O        2.87663196       1.11562631      -1.28424983
O        0.82394470       2.14729177      -0.96539597
C        2.12037743      -0.85902914       0.83684885
O        3.14569983      -1.15523358       1.27310476
O        1.08634834      -0.54728676       0.39529444
C       -0.41166857      -0.58523840      -2.91914846
O       -1.47803304      -0.85305632      -3.28120702
O        0.66358507      -0.31816678      -2.56959877
C       -0.99096287       4.19293287      -0.68665201
O       -0.23856462       4.98901700      -1.06218283
O       -1.75654203       3.39976576      -0.32234810
C        1.48953356      -3.07432844      -1.98873690
O        0.92724248      -3.23019800      -2.98956263
O        2.07347136      -2.92668863      -0.99595127
C        1.20001666      -5.28101276       0.45091570
O        0.29768544      -5.16261047      -0.27278527
O        2.10029036      -5.41953148       1.16403043
36
Properties=species:S:1:pos:R:3 Coordinates=T from=T ORCA-job=T trial_005_001_012=T pbc="F F F"
C       -2.23288450      -2.12025595      -1.07442504
O       -1.07080053      -2.10698934      -0.98578260
O       -3.38411945      -2.15079025      -1.15003263
C       -0.32087553      -1.94734409       1.60523183
O       -1.30556923      -1.36675020       1.79917720
O        0.65354470      -2.54547146       1.41072436
C       -1.49284472       1.11870360       0.47361885
O       -1.09317250       1.58810354       1.45649021
O       -1.89778592       0.63843235      -0.50046202
C        0.70738327       0.91162913       3.51870088
O        0.37354652       1.90013593       4.02016166
O        1.05478052      -0.08432712       3.03189793
C        0.91546949       3.42806490       1.54689013
O        1.70921676       2.58012039       1.46936914
O        0.14317410       4.28598932       1.61073781
C        1.34659360       2.30713500      -1.39590225
O        2.41448798       1.94227672      -1.64476625
O        0.28108934       2.69683683      -1.13574722
C        2.02955839      -0.22748865       0.42332576
O        3.10021386      -0.51008017       0.74991988
O        0.94834041       0.06309874       0.10061094
C       -0.79334961      -0.12148862      -3.02280769
O       -1.86863551      -0.45785355      -3.28952713
O        0.28992972       0.21421824      -2.77059984
C       -1.65311443       4.55700435      -0.60055685
O       -0.99444111       5.43611104      -0.96683361
O       -2.32156715       3.67810539      -0.24190179
C        1.31728712      -2.46183933      -2.30563680
O        0.65986110      -2.73495576      -3.22138035
O        1.98955477      -2.17972519      -1.40434557
C        0.93799433      -5.06627114       0.27498189
O        0.66388629      -4.67868109      -0.78406400
O        1.18638634      -5.47565807       1.33014786
C        3.30285110      -3.10902525       1.90260657
O        3.38255066      -3.59477918       0.85142937
O        3.22869823      -2.63225343       2.95603438
15
Properties=species:S:1:pos:R:3 Coordinates=T from=T ORCA-job=T trial_005_002_005=T pbc="F F F"
C        0.79749927       0.21106200      -2.39097982
O        1.63377814       0.46208227      -1.62480552
O       -0.02146825      -0.03344451      -3.17119936
C        1.78258425      -0.32039766       1.01090175
O        0.80727848       0.25947984       1.27891784
O        2.75338102      -0.89774970       0.77508380
C       -1.33346356       1.73250948       0.37076415
O       -1.63550410       2.11668115       1.41793551
O       -1.02588474       1.35703900      -0.68669279
C       -1.07148820      -1.44696536      -0.01910204
O       -0.18184318      -1.77870518      -0.68447604
O       -1.96168903      -1.11827620       0.64879580
C       -0.60062350      -1.33281473       3.15876454
O       -0.00367625      -2.17302134       2.61815256
O       -1.19002444      -0.50028027       3.70240821
21
Properties=species:S:1:pos:R:3 Coordinates=T from=T ORCA-job=T trial_005_002_007=T pbc="F F F"
C       -2.07963547      -0.32083960      -1.78170376
O       -1.04601356      -0.85966767      -1.77810279
O       -3.10368383       0.21202390      -1.79796843
C       -0.51190811      -1.36459239       0.97297393
O       -1.00520008      -0.32346225       1.13501808
O       -0.03939983      -2.40673894       0.80168893
C        0.63399572       1.13250593      -0.84706994
O        1.37998730       0.35461779      -0.40725501
O       -0.11463117       1.89549032      -1.28587738
C        0.97872084       1.12351063       2.56488099
O        0.91784061       2.08336701       1.91038955
O        1.03666432       0.17215756       3.22018532
C        3.38968925       2.06450270       0.48500295
O        3.71508911       1.32446791       1.31845785
O        3.06464340       2.80513714      -0.34402522
C       -2.28354632      -3.57774292      -0.58532961
O       -1.79470482      -4.57119168      -0.91656330
O       -2.79063790      -2.58305399      -0.25595202
C        3.39840015      -1.31118498       0.52003996
O        2.80053500      -1.54226702       1.48594727
O        3.99965160      -1.08819056      -0.44660117
